(set-option :print-success false)
(set-logic QF_UF)
(declare-sort x94 0)
(declare-sort x157 0)
(declare-fun x5 (x157 x157) x157)
(declare-fun x140 () x157)
(declare-fun x30 () x157)
(declare-fun x11 () x157)
(declare-fun x67 () x157)
(declare-fun x65 () x157)
(declare-fun x114 (x157 x157) x157)
(assert (or (and (and (and (and (not (= x11 (x114 x30 (x114 x11 x30)))) (not (= (x114 x65 (x114 x11 x65)) x11))) (not (= (x114 x140 (x114 x11 x140)) x11))) (not (= x11 (x114 x67 (x114 x11 x67))))) (not (= (x114 x11 (x114 x11 x11)) x11))) (or (or (and (not (= (x114 x11 (x114 x140 x11)) x140)) (and (and (not (= (x114 x140 (x114 x140 x140)) x140)) (and (not (= (x114 x30 (x114 x140 x30)) x140)) (not (= x140 (x114 x65 (x114 x140 x65)))))) (not (= x140 (x114 x67 (x114 x140 x67)))))) (or (and (and (not (= (x114 x67 (x114 x30 x67)) x30)) (and (and (not (= (x114 x65 (x114 x30 x65)) x30)) (not (= x30 (x114 x30 (x114 x30 x30))))) (not (= x30 (x114 x140 (x114 x30 x140)))))) (not (= (x114 x11 (x114 x30 x11)) x30))) (and (and (and (and (not (= (x114 x65 (x114 x65 x65)) x65)) (not (= (x114 x30 (x114 x65 x30)) x65))) (not (= x65 (x114 x140 (x114 x65 x140))))) (not (= x65 (x114 x67 (x114 x65 x67))))) (not (= x65 (x114 x11 (x114 x65 x11))))))) (and (not (= x67 (x114 x11 (x114 x67 x11)))) (and (not (= (x114 x67 (x114 x67 x67)) x67)) (and (and (not (= x67 (x114 x65 (x114 x67 x65)))) (not (= (x114 x30 (x114 x67 x30)) x67))) (not (= x67 (x114 x140 (x114 x67 x140))))))))))
(assert (let ((x17 (x114 x140 x65)) (x15 (x114 x67 x140)) (x153 (x114 x65 x140)) (x71 (x114 x67 x65)) (x62 (x114 x67 x11)) (x111 (x114 x30 x11)) (x103 (x114 x65 x11)) (x143 (x114 x140 x140)) (x134 (x114 x11 x30)) (x66 (x114 x140 x30)) (x31 (x114 x30 x67)) (x76 (x114 x140 x67)) (x41 (x114 x67 x67)) (x152 (x114 x11 x65)) (x86 (x114 x67 x30)) (x24 (x114 x11 x67)) (x158 (x114 x140 x11)) (x80 (x114 x30 x30)) (x21 (x114 x65 x30)) (x117 (x114 x65 x67)) (x154 (x114 x11 x140)) (x127 (x114 x30 x140)) (x25 (x114 x65 x65)) (x6 (x114 x30 x65)) (x45 (x114 x11 x11))) (and (and (and (and (and (and (and (and (or (or (or (= x80 x140) (or (= x80 x65) (= x80 x30))) (= x67 x80)) (= x80 x11)) (or (= x6 x11) (or (= x67 x6) (or (= x6 x140) (or (= x6 x30) (= x65 x6)))))) (or (or (or (= x127 x140) (or (= x127 x65) (= x30 x127))) (= x67 x127)) (= x11 x127))) (or (or (or (= x140 x31) (or (= x31 x30) (= x31 x65))) (= x31 x67)) (= x31 x11))) (or (= x111 x11) (or (or (= x140 x111) (or (= x65 x111) (= x30 x111))) (= x111 x67)))) (and (or (= x103 x11) (or (= x67 x103) (or (or (= x103 x65) (= x103 x30)) (= x140 x103)))) (and (and (or (or (= x67 x153) (or (= x140 x153) (or (= x153 x65) (= x30 x153)))) (= x11 x153)) (and (or (= x11 x25) (or (= x67 x25) (or (= x140 x25) (or (= x25 x30) (= x25 x65))))) (or (= x21 x11) (or (= x21 x67) (or (= x21 x140) (or (= x21 x30) (= x65 x21))))))) (or (or (= x67 x117) (or (= x140 x117) (or (= x65 x117) (= x30 x117)))) (= x117 x11))))) (and (or (or (or (= x140 x158) (or (= x30 x158) (= x158 x65))) (= x158 x67)) (= x11 x158)) (and (or (= x76 x11) (or (= x67 x76) (or (= x76 x140) (or (= x65 x76) (= x30 x76))))) (and (or (or (= x67 x143) (or (or (= x143 x65) (= x30 x143)) (= x143 x140))) (= x143 x11)) (and (or (or (or (or (= x17 x65) (= x17 x30)) (= x140 x17)) (= x17 x67)) (= x11 x17)) (or (= x11 x66) (or (or (= x66 x140) (or (= x65 x66) (= x66 x30))) (= x67 x66)))))))) (and (and (and (and (or (or (= x67 x71) (or (= x140 x71) (or (= x71 x30) (= x65 x71)))) (= x71 x11)) (or (or (= x67 x86) (or (= x86 x140) (or (= x86 x30) (= x86 x65)))) (= x11 x86))) (or (= x15 x11) (or (= x15 x67) (or (or (= x15 x65) (= x30 x15)) (= x140 x15))))) (or (= x41 x11) (or (or (or (= x41 x65) (= x41 x30)) (= x140 x41)) (= x41 x67)))) (or (= x62 x11) (or (or (= x140 x62) (or (= x62 x30) (= x65 x62))) (= x67 x62))))) (and (and (and (or (or (or (= x140 x154) (or (= x65 x154) (= x30 x154))) (= x67 x154)) (= x11 x154)) (and (or (or (= x67 x134) (or (= x134 x140) (or (= x134 x30) (= x134 x65)))) (= x11 x134)) (or (or (= x67 x152) (or (or (= x152 x30) (= x65 x152)) (= x140 x152))) (= x11 x152)))) (or (= x24 x11) (or (= x67 x24) (or (= x24 x140) (or (= x65 x24) (= x30 x24)))))) (or (= x45 x11) (or (or (or (= x65 x45) (= x45 x30)) (= x45 x140)) (= x67 x45)))))))
(assert (and (and (and (or (= x140 (x114 (x114 x11 x140) x11)) (or (= x140 (x114 (x114 x67 x140) x67)) (or (= x140 (x114 (x114 x140 x140) x140)) (or (= (x114 (x114 x30 x140) x30) x140) (= (x114 (x114 x65 x140) x65) x140))))) (and (or (or (= x30 (x114 (x114 x67 x30) x67)) (or (= x30 (x114 (x114 x140 x30) x140)) (or (= (x114 (x114 x65 x30) x65) x30) (= x30 (x114 (x114 x30 x30) x30))))) (= x30 (x114 (x114 x11 x30) x11))) (or (or (or (or (= x65 (x114 (x114 x65 x65) x65)) (= (x114 (x114 x30 x65) x30) x65)) (= x65 (x114 (x114 x140 x65) x140))) (= (x114 (x114 x67 x65) x67) x65)) (= x65 (x114 (x114 x11 x65) x11))))) (or (or (= (x114 (x114 x67 x67) x67) x67) (or (or (= x67 (x114 (x114 x65 x67) x65)) (= x67 (x114 (x114 x30 x67) x30))) (= x67 (x114 (x114 x140 x67) x140)))) (= (x114 (x114 x11 x67) x11) x67))) (or (= (x114 (x114 x11 x11) x11) x11) (or (or (= x11 (x114 (x114 x140 x11) x140)) (or (= (x114 (x114 x30 x11) x30) x11) (= x11 (x114 (x114 x65 x11) x65)))) (= x11 (x114 (x114 x67 x11) x67))))))
(assert (or (and (and (and (and (not (= x65 (x114 x11 (x114 x11 x65)))) (not (= x30 (x114 x11 (x114 x11 x30))))) (not (= (x114 x11 (x114 x11 x140)) x140))) (not (= (x114 x11 (x114 x11 x67)) x67))) (not (= x11 (x114 x11 (x114 x11 x11))))) (or (and (not (= (x114 x67 (x114 x67 x11)) x11)) (and (and (not (= x140 (x114 x67 (x114 x67 x140)))) (and (not (= (x114 x67 (x114 x67 x30)) x30)) (not (= (x114 x67 (x114 x67 x65)) x65)))) (not (= (x114 x67 (x114 x67 x67)) x67)))) (or (and (and (and (and (not (= x65 (x114 x140 (x114 x140 x65)))) (not (= (x114 x140 (x114 x140 x30)) x30))) (not (= x140 (x114 x140 (x114 x140 x140))))) (not (= (x114 x140 (x114 x140 x67)) x67))) (not (= x11 (x114 x140 (x114 x140 x11))))) (or (and (and (and (and (not (= x30 (x114 x65 (x114 x65 x30)))) (not (= (x114 x65 (x114 x65 x65)) x65))) (not (= (x114 x65 (x114 x65 x140)) x140))) (not (= x67 (x114 x65 (x114 x65 x67))))) (not (= x11 (x114 x65 (x114 x65 x11))))) (and (and (not (= (x114 x30 (x114 x30 x67)) x67)) (and (and (not (= (x114 x30 (x114 x30 x30)) x30)) (not (= x65 (x114 x30 (x114 x30 x65))))) (not (= x140 (x114 x30 (x114 x30 x140)))))) (not (= (x114 x30 (x114 x30 x11)) x11))))))))
(assert (or (and (and (and (and (not (= x30 (x114 (x114 x11 x30) x11))) (not (= x65 (x114 (x114 x11 x65) x11)))) (not (= (x114 (x114 x11 x140) x11) x140))) (not (= (x114 (x114 x11 x67) x11) x67))) (not (= x11 (x114 (x114 x11 x11) x11)))) (or (and (not (= x11 (x114 (x114 x67 x11) x67))) (and (and (not (= x140 (x114 (x114 x67 x140) x67))) (and (not (= (x114 (x114 x67 x65) x67) x65)) (not (= (x114 (x114 x67 x30) x67) x30)))) (not (= (x114 (x114 x67 x67) x67) x67)))) (or (or (and (and (and (not (= (x114 (x114 x65 x140) x65) x140)) (and (not (= x65 (x114 (x114 x65 x65) x65))) (not (= (x114 (x114 x65 x30) x65) x30)))) (not (= (x114 (x114 x65 x67) x65) x67))) (not (= x11 (x114 (x114 x65 x11) x65)))) (and (and (and (not (= x140 (x114 (x114 x30 x140) x30))) (and (not (= (x114 (x114 x30 x65) x30) x65)) (not (= x30 (x114 (x114 x30 x30) x30))))) (not (= (x114 (x114 x30 x67) x30) x67))) (not (= x11 (x114 (x114 x30 x11) x30))))) (and (and (not (= x67 (x114 (x114 x140 x67) x140))) (and (not (= x140 (x114 (x114 x140 x140) x140))) (and (not (= x30 (x114 (x114 x140 x30) x140))) (not (= (x114 (x114 x140 x65) x140) x65))))) (not (= (x114 (x114 x140 x11) x140) x11)))))))
(assert (let ((x31 (x114 x67 x67)) (x111 (x114 x11 x11)) (x127 (x114 x140 x140)) (x6 (x114 x65 x65)) (x80 (x114 x30 x30))) (or (and (not (= x11 x111)) (and (not (= x31 x11)) (and (and (not (= x80 x11)) (not (= x11 x6))) (not (= x11 x127))))) (or (or (and (not (= x140 x111)) (and (and (and (not (= x140 x80)) (not (= x6 x140))) (not (= x140 x127))) (not (= x140 x31)))) (or (and (not (= x111 x65)) (and (and (not (= x127 x65)) (and (not (= x6 x65)) (not (= x65 x80)))) (not (= x31 x65)))) (and (and (and (not (= x30 x127)) (and (not (= x30 x80)) (not (= x6 x30)))) (not (= x31 x30))) (not (= x30 x111))))) (and (not (= x67 x111)) (and (not (= x31 x67)) (and (not (= x67 x127)) (and (not (= x80 x67)) (not (= x67 x6))))))))))
(assert (and (= (x114 x30 x140) x11) (and (= (x114 x11 x65) x67) (and (= x65 (x114 x140 x140)) (= (x114 x65 x140) x30)))))
(assert (not (and (and (= x65 (x114 x11 x67)) (and (and (= x67 (x114 x11 x65)) (and (and (and (= x30 (x114 x67 x67)) (and (= (x114 x67 x140) x67) (and (= (x114 x67 x65) x11) (and (and (= x67 (x114 x140 x11)) (and (and (= x65 (x114 x140 x140)) (and (= (x114 x140 x65) x30) (and (= (x114 x140 x30) x140) (and (and (and (= (x114 x65 x140) x30) (and (and (and (and (and (and (= (x114 x30 x30) x30) (= (x114 x30 x65) x140)) (= x11 (x114 x30 x140))) (= x67 (x114 x30 x67))) (= (x114 x30 x11) x65)) (= (x114 x65 x30) x67)) (= (x114 x65 x65) x65))) (= x140 (x114 x65 x67))) (= x11 (x114 x65 x11)))))) (= (x114 x140 x67) x11))) (= x65 (x114 x67 x30)))))) (= x140 (x114 x67 x11))) (= (x114 x11 x30) x11))) (= x140 (x114 x11 x140)))) (= (x114 x11 x11) x30))))
(assert (let ((x91 (x114 x65 x65)) (x54 (x114 x67 x65)) (x4 (x114 x67 x140)) (x2 (x114 x30 x65)) (x79 (x114 x30 x30)) (x63 (x114 x11 x67)) (x106 (x114 x140 x30)) (x150 (x114 x65 x67)) (x28 (x114 x140 x67)) (x84 (x114 x11 x30)) (x92 (x114 x140 x11)) (x70 (x114 x65 x11)) (x53 (x114 x11 x140)) (x52 (x114 x140 x140)) (x12 (x114 x11 x11)) (x102 (x114 x67 x11)) (x73 (x114 x30 x140)) (x121 (x114 x65 x140)) (x26 (x114 x67 x67)) (x104 (x114 x140 x65)) (x3 (x114 x30 x67)) (x42 (x114 x65 x30)) (x47 (x114 x11 x65)) (x9 (x114 x30 x11)) (x145 (x114 x67 x30))) (let ((x111 (not (= x30 x106))) (x143 (not (= x30 x150))) (x89 (not (= x84 x11))) (x93 (not (= x65 x121))) (x100 (not (= x42 x65))) (x72 (not (= x140 x53))) (x6 (not (= x42 x30))) (x154 (not (= x30 x63))) (x76 (not (= x4 x30))) (x156 (not (= x3 x67))) (x132 (not (= x91 x65))) (x85 (not (= x140 x12))) (x144 (not (= x53 x67))) (x32 (not (= x65 x9))) (x134 (not (= x53 x30))) (x159 (not (= x28 x65))) (x113 (not (= x65 x145))) (x152 (not (= x92 x30))) (x61 (not (= x121 x140))) (x1 (not (= x65 x79))) (x43 (not (= x140 x9))) (x126 (not (= x140 x4))) (x34 (not (= x73 x67))) (x133 (not (= x91 x67))) (x64 (not (= x63 x11))) (x17 (not (= x54 x30))) (x124 (not (= x65 x26))) (x131 (not (= x106 x140))) (x49 (not (= x52 x140))) (x38 (not (= x4 x67))) (x57 (not (= x79 x11))) (x153 (not (= x121 x30))) (x80 (not (= x79 x30))) (x71 (not (= x30 x84))) (x108 (not (= x54 x140))) (x105 (not (= x140 x70))) (x97 (not (= x140 x92))) (x136 (not (= x65 x4))) (x74 (not (= x79 x140))) (x10 (not (= x91 x11))) (x75 (not (= x42 x140))) (x109 (not (= x79 x67))) (x66 (not (= x30 x3))) (x27 (not (= x3 x140))) (x110 (not (= x67 x47))) (x141 (not (= x145 x11))) (x117 (not (= x52 x30))) (x44 (not (= x67 x70))) (x123 (not (= x47 x65))) (x59 (not (= x12 x65))) (x19 (not (= x140 x2))) (x120 (not (= x102 x67))) (x56 (not (= x9 x11))) (x96 (not (= x121 x67))) (x45 (not (= x30 x12))) (x60 (not (= x102 x140))) (x125 (not (= x73 x11))) (x155 (not (= x140 x26))) (x112 (not (= x54 x65))) (x101 (not (= x140 x104))) (x139 (not (= x65 x84))) (x81 (not (= x65 x150))) (x13 (not (= x67 x104))) (x118 (not (= x11 x42))) (x20 (not (= x140 x84))) (x87 (not (= x104 x65))) (x41 (not (= x30 x47))) (x14 (not (= x3 x11))) (x86 (not (= x30 x26))) (x33 (not (= x140 x91))) (x129 (not (= x11 x70))) (x35 (not (= x67 x52))) (x149 (not (= x11 x121))) (x151 (not (= x104 x11))) (x128 (not (= x54 x11))) (x51 (not (= x11 x12))) (x48 (not (= x11 x2))) (x107 (not (= x67 x12))) (x21 (not (= x73 x30))) (x122 (not (= x67 x63))) (x138 (not (= x145 x67))) (x55 (not (= x67 x28))) (x148 (not (= x47 x11))) (x58 (not (= x63 x140))) (x115 (not (= x11 x106))) (x135 (not (= x84 x67))) (x23 (not (= x65 x92))) (x78 (not (= x150 x67))) (x36 (not (= x92 x11))) (x50 (not (= x65 x52))) (x147 (not (= x67 x2))) (x29 (not (= x65 x70))) (x15 (not (= x30 x9))) (x68 (not (= x73 x140))) (x130 (not (= x140 x47))) (x98 (not (= x73 x65))) (x22 (not (= x3 x65))) (x82 (not (= x26 x67))) (x69 (not (= x11 x53))) (x158 (not (= x28 x30))) (x39 (not (= x63 x65))) (x116 (not (= x140 x28))) (x99 (not (= x106 x65))) (x83 (not (= x140 x145))) (x90 (not (= x4 x11))) (x18 (not (= x9 x67))) (x103 (not (= x30 x145))) (x24 (not (= x30 x102))) (x16 (not (= x67 x54))) (x37 (not (= x11 x52))) (x119 (not (= x65 x53))) (x46 (not (= x150 x11))) (x62 (not (= x30 x70))) (x137 (not (= x65 x2))) (x142 (not (= x150 x140))) (x127 (not (= x30 x2))) (x88 (not (= x92 x67))) (x8 (not (= x65 x102))) (x25 (not (= x30 x104))) (x31 (not (= x30 x91))) (x7 (not (= x11 x26))) (x77 (not (= x102 x11))) (x40 (not (= x67 x106))) (x146 (not (= x28 x11))) (x95 (not (= x67 x42)))) (or (and (and (and (or x64 x77) (and (or x69 x36) (and (or x89 x56) (or x129 x148)))) (or x51 x51)) (and (and (and (and (or x146 x90) (and (and (or x115 x125) (or x151 x149)) (or x37 x37))) (or x69 x36)) (and (and (or x89 x56) (and (and (and (or x57 x57) (or x48 x118)) (or x115 x125)) (or x141 x14))) (and (or x129 x148) (and (or x46 x128) (and (and (or x118 x48) (or x10 x10)) (or x149 x151)))))) (and (or x64 x77) (and (or x7 x7) (and (and (or x46 x128) (or x14 x141)) (or x90 x146)))))) (or (or (or (and (and (and (or x24 x154) (and (and (or x76 x158) (and (or x17 x143) (or x66 x103))) (or x86 x86))) (and (and (and (or x15 x71) (and (and (and (or x80 x80) (or x6 x127)) (or x111 x21)) (or x103 x66))) (and (and (and (or x25 x153) (and (or x31 x31) (or x127 x6))) (or x143 x17)) (or x41 x62))) (and (and (or x76 x158) (and (and (or x25 x153) (or x111 x21)) (or x117 x117))) (or x152 x134)))) (and (or x45 x45) (and (and (or x152 x134) (and (or x71 x15) (or x41 x62))) (or x24 x154)))) (and (and (and (and (and (and (or x113 x22) (and (and (or x1 x1) (or x100 x137)) (or x98 x99))) (or x32 x139)) (and (and (and (and (or x132 x132) (or x137 x100)) (or x87 x93)) (or x81 x112)) (or x123 x29))) (and (or x119 x23) (and (and (or x50 x50) (and (or x99 x98) (or x87 x93))) (or x136 x159)))) (and (or x8 x39) (and (and (or x136 x159) (and (or x81 x112) (or x113 x22))) (or x124 x124)))) (and (or x59 x59) (and (and (or x119 x23) (and (or x123 x29) (or x139 x32))) (or x8 x39))))) (and (and (and (or x58 x60) (and (or x97 x72) (and (or x43 x20) (or x130 x105)))) (or x85 x85)) (and (and (and (or x97 x72) (and (and (and (or x61 x101) (or x131 x68)) (or x49 x49)) (or x116 x126))) (and (and (or x20 x43) (and (and (or x68 x131) (and (or x75 x19) (or x74 x74))) (or x27 x83))) (and (or x105 x130) (and (or x142 x108) (and (and (or x33 x33) (or x75 x19)) (or x61 x101)))))) (and (or x58 x60) (and (and (and (or x27 x83) (or x142 x108)) (or x126 x116)) (or x155 x155)))))) (and (and (and (or x122 x120) (and (or x82 x82) (and (or x55 x38) (and (or x78 x16) (or x156 x138))))) (and (and (and (and (or x16 x78) (and (and (or x95 x147) (or x133 x133)) (or x96 x13))) (or x44 x110)) (and (and (or x138 x156) (and (and (or x147 x95) (or x109 x109)) (or x40 x34))) (or x135 x18))) (and (or x144 x88) (and (or x38 x55) (and (or x35 x35) (and (or x34 x40) (or x13 x96))))))) (and (and (and (or x88 x144) (and (or x44 x110) (or x18 x135))) (or x120 x122)) (or x107 x107))))))))
(assert (let ((x80 (= (x114 x30 x30) x30)) (x153 (= x140 (x114 x140 x140))) (x103 (= (x114 x11 x11) x11)) (x117 (= x67 (x114 x67 x67))) (x127 (= x65 (x114 x65 x65)))) (let ((x111 (not x153)) (x21 (not x117)) (x6 (not x80)) (x31 (not x127)) (x25 (not x103))) (or (or (and x103 x25) (or (or (and (= (x114 x11 x140) x11) x111) (or (and (= (x114 x11 x30) x11) x6) (and x31 (= (x114 x11 x65) x11)))) (and (= (x114 x11 x67) x11) x21))) (or (or (or (or (or (and x31 (= (x114 x67 x65) x67)) (and (= (x114 x67 x30) x67) x6)) (and x111 (= x67 (x114 x67 x140)))) (and x117 x21)) (and (= (x114 x67 x11) x67) x25)) (or (or (or (or (or (and x111 (= x30 (x114 x30 x140))) (or (and x80 x6) (and x31 (= (x114 x30 x65) x30)))) (and x21 (= (x114 x30 x67) x30))) (and x25 (= (x114 x30 x11) x30))) (or (or (or (or (and x31 x127) (and (= x65 (x114 x65 x30)) x6)) (and x111 (= x65 (x114 x65 x140)))) (and (= x65 (x114 x65 x67)) x21)) (and (= (x114 x65 x11) x65) x25))) (or (and (= x140 (x114 x140 x11)) x25) (or (and x21 (= x140 (x114 x140 x67))) (or (or (and x31 (= x140 (x114 x140 x65))) (and x6 (= x140 (x114 x140 x30)))) (and x153 x111))))))))))
(assert (let ((x152 (x114 x65 x11)) (x1 (x114 x11 x65)) (x61 (x114 x11 x67)) (x18 (x114 x11 x11)) (x111 (x114 x30 x67)) (x21 (x114 x30 x11)) (x70 (x114 x140 x140)) (x117 (x114 x140 x30)) (x127 (x114 x30 x65)) (x62 (x114 x65 x140)) (x6 (x114 x30 x30)) (x134 (x114 x65 x67)) (x31 (x114 x30 x140)) (x103 (x114 x67 x30)) (x75 (x114 x67 x67)) (x19 (x114 x67 x11)) (x52 (x114 x67 x140)) (x50 (x114 x11 x140)) (x99 (x114 x140 x11)) (x153 (x114 x65 x30)) (x66 (x114 x11 x30)) (x79 (x114 x67 x65)) (x41 (x114 x65 x65)) (x47 (x114 x140 x67)) (x45 (x114 x140 x65))) (let ((x145 (= x67 x41)) (x147 (= x11 x47)) (x159 (= x67 x70)) (x84 (= x11 x127)) (x86 (= x127 x30)) (x89 (= x66 x11)) (x10 (= x152 x140)) (x121 (= x30 x62)) (x28 (= x117 x140)) (x123 (= x79 x30)) (x46 (= x152 x67)) (x122 (= x65 x18)) (x16 (= x30 x19)) (x115 (= x99 x140)) (x12 (= x103 x65)) (x136 (= x67 x62)) (x72 (= x67 x47)) (x141 (= x67 x50)) (x133 (= x11 x75)) (x125 (= x140 x19)) (x101 (= x65 x75)) (x93 (= x65 x70)) (x95 (= x11 x134)) (x90 (= x67 x99)) (x87 (= x62 x65)) (x68 (= x47 x65)) (x135 (= x65 x61)) (x44 (= x65 x152)) (x142 (= x134 x140)) (x24 (= x41 x65)) (x119 (= x111 x30)) (x156 (= x99 x30)) (x73 (= x140 x41)) (x105 (= x134 x67)) (x20 (= x79 x67)) (x128 (= x21 x67)) (x124 (= x45 x11)) (x29 (= x30 x52)) (x132 (= x31 x30)) (x82 (= x65 x50)) (x39 (= x47 x30)) (x88 (= x19 x65)) (x80 (= x30 x6)) (x55 (= x1 x65)) (x77 (= x19 x11)) (x110 (= x21 x65)) (x78 (= x30 x18)) (x137 (= x30 x117)) (x112 (= x67 x45)) (x56 (= x1 x11)) (x63 (= x62 x11)) (x144 (= x65 x99)) (x92 (= x140 x31)) (x139 (= x70 x11)) (x27 (= x140 x52)) (x116 (= x75 x140)) (x97 (= x67 x75)) (x158 (= x153 x30)) (x130 (= x67 x111)) (x126 (= x47 x140)) (x71 (= x41 x30)) (x13 (= x50 x30)) (x53 (= x62 x140)) (x38 (= x66 x65)) (x91 (= x45 x30)) (x42 (= x127 x140)) (x8 (= x30 x75)) (x83 (= x79 x140)) (x17 (= x6 x140)) (x36 (= x152 x11)) (x102 (= x31 x11)) (x7 (= x67 x18)) (x143 (= x67 x6)) (x108 (= x111 x140)) (x40 (= x30 x66)) (x155 (= x103 x67)) (x107 (= x140 x1)) (x96 (= x61 x30)) (x154 (= x65 x127)) (x23 (= x30 x134)) (x59 (= x79 x65)) (x43 (= x67 x52)) (x2 (= x140 x153)) (x49 (= x140 x103)) (x37 (= x1 x67)) (x85 (= x52 x11)) (x76 (= x11 x6)) (x34 (= x30 x1)) (x58 (= x11 x103)) (x118 (= x61 x140)) (x64 (= x11 x99)) (x149 (= x67 x66)) (x54 (= x65 x45)) (x48 (= x140 x21)) (x150 (= x117 x65)) (x104 (= x70 x30)) (x69 (= x21 x11)) (x98 (= x31 x65)) (x22 (= x117 x67)) (x25 (= x65 x6)) (x138 (= x152 x30)) (x81 (= x31 x67)) (x9 (= x11 x153)) (x35 (= x30 x21)) (x113 (= x70 x140)) (x60 (= x11 x79)) (x74 (= x65 x52)) (x33 (= x111 x65)) (x14 (= x61 x67)) (x51 (= x11 x18)) (x129 (= x11 x61)) (x151 (= x18 x140)) (x106 (= x67 x153)) (x120 (= x140 x66)) (x57 (= x140 x50)) (x146 (= x67 x19)) (x15 (= x65 x153)) (x4 (= x45 x140)) (x100 (= x41 x11)) (x148 (= x11 x50)) (x26 (= x117 x11)) (x32 (= x30 x103)) (x109 (= x111 x11)) (x131 (= x134 x65)) (x3 (= x127 x67))) (and (and (and (and (and (and (and (or (or (or x22 (or x106 x143)) x155) x149) (or (or (or x81 (or x3 x143)) x130) x128)) (and (and (or (or x108 (or (or x42 x17) x92)) x48) (or (or x49 (or (or x17 x2) x28)) x120)) (and (and (or x110 (or x33 (or (or x25 x154) x98))) (or (or (or (or x25 x15) x150) x12) x38)) (and (or (or x32 (or x137 (or x158 x80))) x40) (or (or x119 (or (or x86 x80) x132)) x35))))) (and (or (or (or x102 (or x76 x84)) x109) x69) (or (or x58 (or (or x9 x76) x26)) x89))) (and (and (or (or x95 (or x63 (or x100 x9))) x36) (or (or (or (or x84 x100) x124) x60) x56)) (and (and (and (or (or x83 (or (or x73 x42) x4)) x107) (or (or (or (or x73 x2) x53) x142) x10)) (and (and (or (or (or x91 (or x86 x71)) x123) x34) (or (or (or x121 (or x158 x71)) x23) x138)) (and (or x44 (or x131 (or x87 (or x24 x15)))) (or x55 (or (or x54 (or x24 x154)) x59))))) (and (or x46 (or x105 (or (or x106 x145) x136))) (or x37 (or (or (or x145 x3) x112) x20)))))) (and (and (or (or (or x139 (or x63 x102)) x85) x148) (or (or x147 (or (or x124 x26) x139)) x64)) (and (and (and (and (or (or x74 (or (or x98 x87) x93)) x82) (or (or (or x93 (or x150 x54)) x68) x144)) (and (or x13 (or (or (or x132 x121) x104) x29)) (or (or (or (or x91 x137) x104) x39) x156))) (and (or x115 (or (or (or x4 x28) x113) x126)) (or (or x27 (or (or x92 x53) x113)) x57))) (and (or (or (or (or x81 x136) x159) x43) x141) (or (or (or x159 (or x22 x112)) x72) x90))))) (and (and (or (or (or x85 (or x60 x58)) x133) x77) (or x129 (or x133 (or (or x109 x95) x147)))) (and (and (and (or x125 (or x116 (or x27 (or x83 x49)))) (or (or (or x126 (or x108 x142)) x116) x118)) (and (and (or x88 (or x101 (or (or x12 x59) x74))) (or (or x101 (or x68 (or x131 x33))) x135)) (and (or x16 (or x8 (or x29 (or x32 x123)))) (or x96 (or (or x39 (or x119 x23)) x8))))) (and (or (or (or x43 (or x20 x155)) x97) x146) (or x14 (or x97 (or x72 (or x130 x105)))))))) (and (and (or x51 (or (or (or x36 x69) x64) x77)) (or x51 (or x129 (or (or x89 x56) x148)))) (and (and (or (or (or (or x149 x37) x141) x14) x7) (or x7 (or x146 (or (or x128 x46) x90)))) (and (and (or x151 (or (or (or x10 x48) x115) x125)) (or (or (or (or x107 x120) x57) x118) x151)) (and (and (or x78 (or (or (or x35 x138) x156) x16)) (or x78 (or (or x13 (or x34 x40)) x96))) (and (or (or (or (or x44 x110) x144) x88) x122) (or (or x135 (or x82 (or x38 x55))) x122))))))))))
(assert (or (= (x114 x11 x11) x11) (or (= (x114 x67 x67) x67) (or (= (x114 x140 x140) x140) (or (= x65 (x114 x65 x65)) (= (x114 x30 x30) x30))))))
(assert (let ((x45 (x114 x11 x11)) (x111 (x114 x11 x30)) (x154 (x114 x140 x11)) (x152 (x114 x65 x11)) (x134 (x114 x30 x11)) (x31 (x114 x67 x30)) (x21 (x114 x30 x65)) (x71 (x114 x65 x67)) (x127 (x114 x140 x30)) (x25 (x114 x65 x65)) (x153 (x114 x140 x65)) (x86 (x114 x30 x67)) (x6 (x114 x65 x30)) (x143 (x114 x140 x140)) (x62 (x114 x11 x67)) (x117 (x114 x67 x65)) (x103 (x114 x11 x65)) (x158 (x114 x11 x140)) (x76 (x114 x67 x140)) (x15 (x114 x140 x67)) (x17 (x114 x65 x140)) (x80 (x114 x30 x30)) (x41 (x114 x67 x67)) (x66 (x114 x30 x140)) (x24 (x114 x67 x11))) (or (or (or (or (and (and (not (= x67 (x114 x31 x31))) (and (not (= (x114 x127 x127) x140)) (and (not (= (x114 x80 x80) x30)) (not (= (x114 x6 x6) x65))))) (not (= (x114 x111 x111) x11))) (and (and (and (not (= x140 (x114 x153 x153))) (and (not (= x30 (x114 x21 x21))) (not (= x65 (x114 x25 x25))))) (not (= (x114 x117 x117) x67))) (not (= x11 (x114 x103 x103))))) (and (and (and (and (not (= x30 (x114 x66 x66))) (not (= (x114 x17 x17) x65))) (not (= (x114 x143 x143) x140))) (not (= (x114 x76 x76) x67))) (not (= (x114 x158 x158) x11)))) (and (not (= (x114 x62 x62) x11)) (and (not (= (x114 x41 x41) x67)) (and (and (not (= x65 (x114 x71 x71))) (not (= (x114 x86 x86) x30))) (not (= x140 (x114 x15 x15))))))) (and (not (= (x114 x45 x45) x11)) (and (not (= (x114 x24 x24) x67)) (and (and (not (= x65 (x114 x152 x152))) (not (= x30 (x114 x134 x134)))) (not (= x140 (x114 x154 x154)))))))))
(assert (let ((x15 (x114 x140 x67)) (x158 (x114 x11 x140)) (x24 (x114 x67 x11)) (x31 (x114 x67 x30)) (x117 (x114 x67 x65)) (x45 (x114 x11 x11)) (x127 (x114 x140 x30)) (x154 (x114 x140 x11)) (x143 (x114 x140 x140)) (x80 (x114 x30 x30)) (x134 (x114 x30 x11)) (x76 (x114 x67 x140)) (x66 (x114 x30 x140)) (x152 (x114 x65 x11)) (x103 (x114 x11 x65)) (x71 (x114 x65 x67)) (x111 (x114 x11 x30)) (x6 (x114 x65 x30)) (x25 (x114 x65 x65)) (x62 (x114 x11 x67)) (x41 (x114 x67 x67)) (x86 (x114 x30 x67)) (x21 (x114 x30 x65)) (x153 (x114 x140 x65)) (x17 (x114 x65 x140))) (and (and (and (not (= x62 x45)) (and (and (not (= x62 x158)) (and (and (not (= x103 x62)) (and (not (= x103 x158)) (and (and (and (not (= x103 x111)) (not (= x111 x158))) (not (= x62 x111))) (not (= x45 x111))))) (not (= x45 x103)))) (not (= x45 x158)))) (and (and (and (and (not (= x76 x41)) (and (not (= x24 x117)) (and (not (= x41 x117)) (and (not (= x76 x117)) (and (not (= x24 x31)) (and (not (= x31 x41)) (and (not (= x76 x31)) (not (= x31 x117))))))))) (not (= x24 x76))) (not (= x24 x41))) (and (and (not (= x154 x15)) (and (not (= x143 x154)) (and (and (and (not (= x15 x153)) (and (and (and (not (= x15 x127)) (and (not (= x153 x127)) (not (= x143 x127)))) (not (= x154 x127))) (not (= x143 x153)))) (not (= x153 x154))) (not (= x15 x143))))) (and (and (not (= x152 x71)) (and (not (= x152 x17)) (and (and (and (and (and (not (= x6 x152)) (and (and (not (= x17 x6)) (not (= x6 x25))) (not (= x71 x6)))) (not (= x25 x17))) (not (= x71 x25))) (not (= x25 x152))) (not (= x17 x71))))) (and (not (= x134 x86)) (and (not (= x134 x66)) (and (not (= x86 x66)) (and (and (and (and (not (= x80 x134)) (and (not (= x80 x86)) (and (not (= x66 x80)) (not (= x21 x80))))) (not (= x21 x66))) (not (= x21 x86))) (not (= x134 x21)))))))))) (and (and (and (and (and (not (= x15 x41)) (and (not (= x71 x62)) (and (not (= x41 x71)) (and (not (= x15 x71)) (and (and (and (not (= x86 x71)) (not (= x15 x86))) (not (= x86 x41))) (not (= x86 x62))))))) (not (= x62 x15))) (not (= x62 x41))) (and (and (and (and (and (and (not (= x111 x6)) (and (not (= x6 x31)) (and (not (= x6 x127)) (and (and (not (= x31 x80)) (and (not (= x6 x80)) (not (= x80 x127)))) (not (= x111 x80)))))) (not (= x31 x127))) (not (= x111 x127))) (not (= x111 x31))) (and (and (and (and (not (= x103 x25)) (and (not (= x25 x117)) (and (and (not (= x103 x21)) (and (not (= x21 x117)) (and (not (= x21 x153)) (not (= x21 x25))))) (not (= x153 x25))))) (not (= x153 x117))) (not (= x153 x103))) (not (= x103 x117)))) (and (not (= x158 x76)) (and (and (not (= x76 x143)) (and (and (and (and (not (= x66 x158)) (and (not (= x76 x66)) (and (not (= x66 x143)) (not (= x66 x17))))) (not (= x17 x143))) (not (= x17 x76))) (not (= x17 x158)))) (not (= x143 x158)))))) (and (and (not (= x154 x45)) (and (and (not (= x45 x152)) (and (and (not (= x154 x152)) (and (not (= x45 x134)) (and (not (= x24 x134)) (and (not (= x154 x134)) (not (= x134 x152)))))) (not (= x152 x24)))) (not (= x154 x24)))) (not (= x24 x45)))))))
(assert (and (and (and (and (not (= x11 x65)) (and (not (= x67 x65)) (and (and (and (not (= x67 x30)) (and (not (= x30 x65)) (not (= x30 x140)))) (not (= x30 x11))) (not (= x140 x65))))) (not (= x140 x67))) (not (= x11 x140))) (not (= x67 x11))))
(assert (and (and (and (and (or (or (= (x114 (x114 x67 x30) x30) x67) (or (= (x114 (x114 x140 x30) x30) x140) (or (= x30 (x114 (x114 x30 x30) x30)) (= (x114 (x114 x65 x30) x30) x65)))) (= x11 (x114 (x114 x11 x30) x30))) (or (or (or (= x140 (x114 (x114 x140 x65) x65)) (or (= (x114 (x114 x65 x65) x65) x65) (= x30 (x114 (x114 x30 x65) x65)))) (= (x114 (x114 x67 x65) x65) x67)) (= (x114 (x114 x11 x65) x65) x11))) (or (or (= x67 (x114 (x114 x67 x140) x140)) (or (= (x114 (x114 x140 x140) x140) x140) (or (= x65 (x114 (x114 x65 x140) x140)) (= x30 (x114 (x114 x30 x140) x140))))) (= (x114 (x114 x11 x140) x140) x11))) (or (= (x114 (x114 x11 x67) x67) x11) (or (or (= (x114 (x114 x140 x67) x67) x140) (or (= (x114 (x114 x65 x67) x67) x65) (= x30 (x114 (x114 x30 x67) x67)))) (= x67 (x114 (x114 x67 x67) x67))))) (or (or (or (= (x114 (x114 x140 x11) x11) x140) (or (= x65 (x114 (x114 x65 x11) x11)) (= x30 (x114 (x114 x30 x11) x11)))) (= x67 (x114 (x114 x67 x11) x11))) (= (x114 (x114 x11 x11) x11) x11))))
(check-sat)
(exit)
